results_rootrelaxation/bin012_080_002.srr.sol
solution status: optimal solution found
objective value:                     19.4117647058824
_var702_                             0.11764705882353 	(obj:1)
_var719_                             0.11764705882353 	(obj:2)
_var748_                            0.294117647058823 	(obj:1)
_var751_                            0.352941176470589 	(obj:1)
_var754_                            0.117647058823529 	(obj:1)
_var756_                            0.235294117647059 	(obj:2)
_var778_                            0.529411764705882 	(obj:2)
_var780_                            0.411764705882353 	(obj:2)
_var822_                           0.0588235294117646 	(obj:2)
_var827_                            0.411764705882353 	(obj:2)
_var829_                            0.588235294117647 	(obj:1)
_var832_                           0.0588235294117654 	(obj:2)
_var842_                            0.294117647058824 	(obj:2)
_var847_                            0.176470588235294 	(obj:1)
_var848_                            0.411764705882353 	(obj:2)
_var850_                           0.0588235294117647 	(obj:1)
_var856_                            0.176470588235294 	(obj:2)
_var858_                             0.11764705882353 	(obj:1)
_var861_                           0.0588235294117646 	(obj:1)
_var865_                            0.176470588235294 	(obj:2)
_var872_                            0.294117647058823 	(obj:1)
_var883_                           0.0588235294117645 	(obj:2)
_var884_                            0.294117647058823 	(obj:2)
_var885_                            0.235294117647058 	(obj:1)
_var887_                            0.176470588235294 	(obj:2)
_var891_                            0.411764705882353 	(obj:1)
_var892_                            0.294117647058823 	(obj:2)
_var897_                            0.117647058823529 	(obj:2)
_var901_                           0.0588235294117644 	(obj:1)
_var910_                            0.470588235294117 	(obj:1)
_var911_                            0.176470588235295 	(obj:3)
_var916_                            0.235294117647058 	(obj:2)
_var917_                           0.0588235294117645 	(obj:4)
_var923_                            0.235294117647058 	(obj:1)
_var926_                            0.529411764705882 	(obj:3)
_var927_                            0.352941176470589 	(obj:2)
_var928_                            0.235294117647059 	(obj:2)
_var930_                            0.235294117647059 	(obj:1)
_var932_                            0.117647058823529 	(obj:4)
_var934_                            0.529411764705882 	(obj:2)
_var938_                            0.117647058823529 	(obj:1)
_var940_                            0.176470588235294 	(obj:2)
_var942_                           0.0588235294117643 	(obj:2)
_var945_                            0.294117647058823 	(obj:3)
_var946_                            0.117647058823529 	(obj:2)
_var947_                             0.11764705882353 	(obj:1)
_var949_                           0.0588235294117645 	(obj:2)
_var953_                            0.117647058823529 	(obj:3)
_var958_                           0.0588235294117649 	(obj:2)
